Route #1: 1 58 57 99 8 12 11 4 10 18 92 96 89 91 78 77 7 15 14 1 
Route #2: 1 93 80 83 81 22 21 24 68 40 44 39 41 43 5 16 1 
Route #3: 1 98 2 95 86 79 17 1 
Route #4: 1 9 49 50 42 47 67 74 38 35 65 19 62 64 59 52 100 1 
Route #5: 1 1 88 87 94 82 84 85 3 13 71 1 
Route #6: 1 76 90 6 51 45 69 72 75 70 30 33 28 1 
Route #7: 1 60 55 34 31 37 1 
Route #8: 1 54 56 20 61 1 
Route #9: 1 53 23 36 27 32 25 26 1 
Route #10: 1 46 48 73 29 97 1 
Route #11: 1 63 66 1 

Cost 3627.98
Time 1.2210


 * Another infos *

 Iterations: 101 Time: 1.2210 sec - 0.0203 min - 0.0003 horas
0.0000 h 0.0203 min
Problem dimension: 101
